25
    1    18    18
    2     8     8
    3     2     2
    4     1     1
    5    12    12
    6    18    18
    7     5     5
    8    14    14
    9    14    14
   10    20    20
   11     4     4
   12    11    11
   13     3     3
   14    20    20
   15    18    18
   16    14    14
   17     7     7
   18    13    13
   19     4     4
   20     9     9
   21    14    14
   22     1     1
   23     5     5
   24    17    17
   25    14    14
73
